NAME : swiss42-R-5-0-b.2567.tour
COMMENT : Length = 2567
COMMENT : Found by LKH-3 [Keld Helsgaun] Tue Jul 30 13:14:22 2024
TYPE : TOUR
DIMENSION : 42
TOUR_SECTION
1
3
10
24
26
16
18
36
35
34
21
4
7
5
42
41
40
22
31
29
28
12
19
2
15
17
38
8
14
11
9
30
39
23
25
13
27
6
20
37
32
33
-1
EOF
